I/O FILES
injector A no swirl.bin
dummy.bin
dummy.bin
dummy.out
dummy.res
dummy.turres
dummy.blomax
dummy.out15
dummy.prout
dummy.out20
dummy.bin
dummy.bin
dummy.bin
	(Description of CFL3D Projet here)
     XMACH     ALPHA      BETA  REUE,MIL   TINF,DR     IALPH    IHSTRY
       XXX       XXX       XXX       XXX       XXX       XXX         0
      SREF      CREF      BREF       XMC       YMC       ZMC
         0         0         0         0         0         0
        DT     IREST   IFLAGTS      FMAX     IUNST    CFLTAU
        -5         0         0         0         0         0
     NGRID   NPLOT3D    NPRINT    NWREST      ICHK       I2D    NTSTEP       ITA
        -9         9         0         0         0         0         0         0
       NCG       IEM  IADVANCE    IFORCE  IVISC(I)  IVISC(J)  IVISC(K)
         0         0         0       333       XXX       XXX       XXX
         0         0         0       333       XXX       XXX       XXX
         0         0         0       333       XXX       XXX       XXX
         0         0         0       333       XXX       XXX       XXX
         0         0         0       333       XXX       XXX       XXX
         0         0         0       333       XXX       XXX       XXX
         0         0         0       333       XXX       XXX       XXX
         0         0         0       333       XXX       XXX       XXX
         0         0         0       333       XXX       XXX       XXX
      IDIM      JDIM      KDIM
        20        20        61
        20        20        61
        20        20        61
        20        20        61
        20        20        61
        39         6        61
        39         6        61
        39         5        61
        39         5        61
    ILAMLO    ILAMHI    JLAMLO    JLAMHI    KLAMLO    KLAMHI
         0         0         0         0         0         0
         0         0         0         0         0         0
         0         0         0         0         0         0
         0         0         0         0         0         0
         0         0         0         0         0         0
         0         0         0         0         0         0
         0         0         0         0         0         0
         0         0         0         0         0         0
         0         0         0         0         0         0
     INEWG    IGRIDC        IS        JS        KS        IE        JE        KE
         0         0         0         0         0         0         0         0
         0         0         0         0         0         0         0         0
         0         0         0         0         0         0         0         0
         0         0         0         0         0         0         0         0
         0         0         0         0         0         0         0         0
         0         0         0         0         0         0         0         0
         0         0         0         0         0         0         0         0
         0         0         0         0         0         0         0         0
         0         0         0         0         0         0         0         0
  IDIAG(I)  IDIAG(J)  IDIAG(K)  IFLIM(I)  IFLIM(J)  IFLIM(K)
         1         1         1         0         0         0
         1         1         1         0         0         0
         1         1         1         0         0         0
         1         1         1         0         0         0
         1         1         1         0         0         0
         1         1         1         0         0         0
         1         1         1         0         0         0
         1         1         1         0         0         0
         1         1         1         0         0         0
   IFDS(I)   IFDS(J)   IFDS(K)  RKAP0(I)  RKAP0(J)  RKAP0(K)
         1         1         1    0.3333    0.3333    0.3333
         1         1         1    0.3333    0.3333    0.3333
         1         1         1    0.3333    0.3333    0.3333
         1         1         1    0.3333    0.3333    0.3333
         1         1         1    0.3333    0.3333    0.3333
         1         1         1    0.3333    0.3333    0.3333
         1         1         1    0.3333    0.3333    0.3333
         1         1         1    0.3333    0.3333    0.3333
         1         1         1    0.3333    0.3333    0.3333
      GRID     NBCI0   NBCIDIM     NBCJ0   NBCJDIM     NBCK0   NBCKDIM    IOVRLP
         1         1         1         1         1         1         1         0
         2         1         1         1         1         1         1         0
         3         1         1         1         1         1         1         0
         4         1         1         1         1         1         1         0
         5         1         1         1         1         1         1         0
         6         1         1         1         2         1         1         0
         7         1         1         1         2         1         1         0
         8         1         1         1         1         1         1         0
         9         1         1         1         1         1         1         0
I0:   GRID   SEGMENT    BCTYPE      JSTA      JEND      KSTA      KEND     NDATA
         1         1         0         1        20         1        61         0
         2         1         0         1        20         1        61         0
         3         1         0         1        20         1        61         0
         4         1         0         1        20         1        61         0
         5         1         0         1        20         1        61         0
         6         1         0         1         6         1        61         0
         7         1         0         1         6         1        61         0
         8         1         0         1         5         1        61         0
         9         1         0         1         5         1        61         0
IDIM: GRID   SEGMENT    BCTYPE      JSTA      JEND      KSTA      KEND     NDATA
         1         1         0         1        20         1        61         0
         2         1         0         1        20         1        61         0
         3         1         0         1        20         1        61         0
         4         1         0         1        20         1        61         0
         5         1         0         1        20         1        61         0
         6         1         0         1         6         1        61         0
         7         1         0         1         6         1        61         0
         8         1         0         1         5         1        61         0
         9         1         0         1         5         1        61         0
J0:   GRID   SEGMENT    BCTYPE      ISTA      IEND      KSTA      KEND     NDATA
         1         1         0         1        20         1        61         0
         2         1         0         1        20         1        61         0
         3         1         0         1        20         1        61         0
         4         1         0         1        20         1        61         0
         5         1         0         1        20         1        61         0
         6         1         0         1        39         1        61         0
         7         1         0         1        39         1        61         0
         8         1      2004         1        39         1        61         2
              Twtype        Cq
                   0         0
         9         1      2004         1        39         1        61         2
              Twtype        Cq
                   0         0
JDIM: GRID   SEGMENT    BCTYPE      ISTA      IEND      KSTA      KEND     NDATA
         1         1         0         1        20         1        61         0
         2         1         0         1        20         1        61         0
         3         1         0         1        20         1        61         0
         4         1         0         1        20         1        61         0
         5         1         0         1        20         1        61         0
         6         1         0        20        39         1        61         0
         6         2         0         1        20         1        61         0
         7         1         0        20        39         1        61         0
         7         2         0         1        20         1        61         0
         8         1         0         1        39         1        61         0
         9         1         0         1        39         1        61         0
K0:   GRID   SEGMENT    BCTYPE      ISTA      IEND      JSTA      JEND     NDATA
         1         1      2003         1        20         1        20         5
                Mach   Pt/Pinf   Tt/Tinf    Alphae     Betae
                 XXX       XXX       XXX       XXX       XXX
         2         1      2003         1        20         1        20         5
                Mach   Pt/Pinf   Tt/Tinf    Alphae     Betae
                 XXX       XXX       XXX       XXX       XXX
         3         1      2003         1        20         1        20         5
                Mach   Pt/Pinf   Tt/Tinf    Alphae     Betae
                 XXX       XXX       XXX       XXX       XXX
         4         1      2003         1        20         1        20         5
                Mach   Pt/Pinf   Tt/Tinf    Alphae     Betae
                 XXX       XXX       XXX       XXX       XXX
         5         1      2003         1        20         1        20         5
                Mach   Pt/Pinf   Tt/Tinf    Alphae     Betae
                 XXX       XXX       XXX       XXX       XXX
         6         1      2004         1        39         1         6         2
              Twtype        Cq
                   0         0
         7         1      2004         1        39         1         6         2
              Twtype        Cq
                   0         0
         8         1      2009         1        39         1         5         0
         9         1      2009         1        39         1         5         0
KDIM: GRID   SEGMENT    BCTYPE      ISTA      IEND      JSTA      JEND     NDATA
         1         1      1003         1        20         1        20         0
         2         1      1003         1        20         1        20         0
         3         1      1003         1        20         1        20         0
         4         1      1003         1        20         1        20         0
         5         1      1003         1        20         1        20         0
         6         1      1003         1        39         1         6         0
         7         1      1003         1        39         1         6         0
         8         1      1003         1        39         1         5         0
         9         1      1003         1        39         1         5         0
      MSEQ    MGFLAG    ICONSF       MTT      NGAM
         1         0         0         0         1
      ISSC EPSSSC(1) EPSSSC(2) EPSSSC(3)      ISSR EPSSSR(1) EPSSSR(2) EPSSSR(3)
         0       0.3       0.3       0.3         0       0.3       0.3       0.3
      NCYC    MGLEVG     NEMGL     NITFO
         1         1         0         0
      MIT1      MIT2      MIT3      MIT4      MIT5
         1         1         1         1         1
   1-1 BLOCKING DATA:
      NBLI
        18
   NUMBER   GRID   :   ISTA   JSTA   KSTA   IEND   JEND   KEND  ISVA1  ISVA2
        1      1          1      1      1      1     20     61      2      3
        2      1          1      1      1     20      1     61      1      3
        3      1         20      1      1     20     20     61      2      3
        4      1          1     20      1     20     20     61      1      3
        5      2          1      1      1      1     20     61      2      3
        6      2          1      1      1     20      1     61      1      3
        7      2          1     20      1     20     20     61      1      3
        8      3          1      1      1      1     20     61      2      3
        9      3          1      1      1     20      1     61      1      3
       10      3          1     20      1     20     20     61      1      3
       11      4          1      1      1     20      1     61      1      3
       12      4          1     20      1     20     20     61      1      3
       13      6          1      1      1      1      6     61      2      3
       14      6          1      1      1     39      1     61      1      3
       15      6         39      1      1     39      6     61      2      3
       16      7          1      1      1     39      1     61      1      3
       17      8          1      1      1      1      5     61      2      3
       18      8         39      1      1     39      5     61      2      3
   NUMBER   GRID   :   ISTA   JSTA   KSTA   IEND   JEND   KEND  ISVA1  ISVA2
        1      2         20      1      1     20     20     61      2      3
        2      6         20      6      1     39      6     61      1      3
        3      4          1      1      1      1     20     61      2      3
        4      5          1      1      1     20      1     61      1      3
        5      3         20      1      1     20     20     61      2      3
        6      6          1      6      1     20      6     61      1      3
        7      5          1     20      1      1      1     61      2      3
        8      4         20      1      1     20     20     61      2      3
        9      7         20      6      1     39      6     61      1      3
       10      5         20     20      1      1     20     61      1      3
       11      7          1      6      1     20      6     61      1      3
       12      5         20      1      1     20     20     61      2      3
       13      7         39      1      1     39      6     61      2      3
       14      8          1      5      1     39      5     61      1      3
       15      7          1      1      1      1      6     61      2      3
       16      9          1      5      1     39      5     61      1      3
       17      9         39      1      1     39      5     61      2      3
       18      9          1      1      1      1      5     61      2      3
  PATCH SURFACE DATA:
    NINTER
         0
PLOT3D OUTPUT:
  GRID  IPTYPE  ISTART  IEND  IINC  JSTART  JEND  JINC  KSTART  KEND  KINC
     1       0       0     0     0       0     0     0       0     0     0
     2       0       0     0     0       0     0     0       0     0     0
     3       0       0     0     0       0     0     0       0     0     0
     4       0       0     0     0       0     0     0       0     0     0
     5       0       0     0     0       0     0     0       0     0     0
     6       0       0     0     0       0     0     0       0     0     0
     7       0       0     0     0       0     0     0       0     0     0
     8       0       0     0     0       0     0     0       0     0     0
     9       0       0     0     0       0     0     0       0     0     0
 MOVIE
     0
 PRINT OUT:
  GRID  IPTYPE  ISTART  IEND  IINC  JSTART  JEND  JINC  KSTART  KEND  KINC
 CONTROL SURFACE:
 NCS
   0
  GRID  ISTART    IEND  JSTART    JEND  KSTART    KEND   IWALL   INORM