I/O FILES
injector A o grid.bin
dummy.bin
dummy.bin
dummy.out
dummy.res
dummy.turres
dummy.blomax
dummy.out15
dummy.prout
dummy.out20
dummy.bin
dummy.bin
dummy.bin
	(Description of CFL3D Projet here)
     XMACH     ALPHA      BETA  REUE,MIL   TINF,DR     IALPH    IHSTRY
       XXX       XXX       XXX       XXX       XXX       XXX         0
      SREF      CREF      BREF       XMC       YMC       ZMC
         0         0         0         0         0         0
        DT     IREST   IFLAGTS      FMAX     IUNST    CFLTAU
        -5         0         0         0         0         0
     NGRID   NPLOT3D    NPRINT    NWREST      ICHK       I2D    NTSTEP       ITA
        -3         3         0         0         0         0         0         0
       NCG       IEM  IADVANCE    IFORCE  IVISC(I)  IVISC(J)  IVISC(K)
         0         0         0       333       XXX       XXX       XXX
         0         0         0       333       XXX       XXX       XXX
         0         0         0       333       XXX       XXX       XXX
      IDIM      JDIM      KDIM
        81        50        25
        81         5        25
        81         4        25
    ILAMLO    ILAMHI    JLAMLO    JLAMHI    KLAMLO    KLAMHI
         0         0         0         0         0         0
         0         0         0         0         0         0
         0         0         0         0         0         0
     INEWG    IGRIDC        IS        JS        KS        IE        JE        KE
         0         0         0         0         0         0         0         0
         0         0         0         0         0         0         0         0
         0         0         0         0         0         0         0         0
  IDIAG(I)  IDIAG(J)  IDIAG(K)  IFLIM(I)  IFLIM(J)  IFLIM(K)
         1         1         1         0         0         0
         1         1         1         0         0         0
         1         1         1         0         0         0
   IFDS(I)   IFDS(J)   IFDS(K)  RKAP0(I)  RKAP0(J)  RKAP0(K)
         1         1         1    0.3333    0.3333    0.3333
         1         1         1    0.3333    0.3333    0.3333
         1         1         1    0.3333    0.3333    0.3333
      GRID     NBCI0   NBCIDIM     NBCJ0   NBCJDIM     NBCK0   NBCKDIM    IOVRLP
         1         2         2         2         2         4         4         0
         2         1         1         2         2         2         2         0
         3         1         1         2         2         2         2         0
I0:   GRID   SEGMENT    BCTYPE      JSTA      JEND      KSTA      KEND     NDATA
         1         1      2003         1        35         1        25         5
                Mach   Pt/Pinf   Tt/Tinf    Alphae     Betae
                 XXX       XXX       XXX       XXX       XXX
         1         2      2003        35        50         1        25         5
                Mach   Pt/Pinf   Tt/Tinf    Alphae     Betae
                 XXX       XXX       XXX       XXX       XXX
         2         1      2004         1         5         1        25         2
              Twtype        Cq
                   0         0
         3         1      2009         1         4         1        25         0
IDIM: GRID   SEGMENT    BCTYPE      JSTA      JEND      KSTA      KEND     NDATA
         1         1      1003         1        35         1        25         0
         1         2      1003        35        50         1        25         0
         2         1      1003         1         5         1        25         0
         3         1      1003         1         4         1        25         0
J0:   GRID   SEGMENT    BCTYPE      ISTA      IEND      KSTA      KEND     NDATA
         1         1      1001         1        41         1        25         0
         1         2      1001        41        81         1        25         0
         2         1         0         1        41         1        25         0
         2         2         0        41        81         1        25         0
         3         1         0         1        41         1        25         0
         3         2         0        41        81         1        25         0
JDIM: GRID   SEGMENT    BCTYPE      ISTA      IEND      KSTA      KEND     NDATA
         1         1         0         1        41         1        25         0
         1         2         0        41        81         1        25         0
         2         1         0         1        41         1        25         0
         2         2         0        41        81         1        25         0
         3         1      2004         1        41         1        25         2
              Twtype        Cq
                   0         0
         3         2      2004        41        81         1        25         2
              Twtype        Cq
                   0         0
K0:   GRID   SEGMENT    BCTYPE      ISTA      IEND      JSTA      JEND     NDATA
         1         1      2005         1        41         1        35         4
              hgridp      dthx      dthy      dthz
                 XXX       XXX       XXX       XXX
         1         2      2005         1        41        35        50         4
              hgridp      dthx      dthy      dthz
                 XXX       XXX       XXX       XXX
         1         3      2005        41        81         1        35         4
              hgridp      dthx      dthy      dthz
                 XXX       XXX       XXX       XXX
         1         4      2005        41        81        35        50         4
              hgridp      dthx      dthy      dthz
                 XXX       XXX       XXX       XXX
         2         1      2005         1        41         1         5         4
              hgridp      dthx      dthy      dthz
                 XXX       XXX       XXX       XXX
         2         2      2005        41        81         1         5         4
              hgridp      dthx      dthy      dthz
                 XXX       XXX       XXX       XXX
         3         1      2005         1        41         1         4         4
              hgridp      dthx      dthy      dthz
                 XXX       XXX       XXX       XXX
         3         2      2005        41        81         1         4         4
              hgridp      dthx      dthy      dthz
                 XXX       XXX       XXX       XXX
KDIM: GRID   SEGMENT    BCTYPE      ISTA      IEND      JSTA      JEND     NDATA
         1         1      2005         1        41         1        35         4
              hgridp      dthx      dthy      dthz
                 XXX       XXX       XXX       XXX
         1         2      2005         1        41        35        50         4
              hgridp      dthx      dthy      dthz
                 XXX       XXX       XXX       XXX
         1         3      2005        41        81         1        35         4
              hgridp      dthx      dthy      dthz
                 XXX       XXX       XXX       XXX
         1         4      2005        41        81        35        50         4
              hgridp      dthx      dthy      dthz
                 XXX       XXX       XXX       XXX
         2         1      2005         1        41         1         5         4
              hgridp      dthx      dthy      dthz
                 XXX       XXX       XXX       XXX
         2         2      2005        41        81         1         5         4
              hgridp      dthx      dthy      dthz
                 XXX       XXX       XXX       XXX
         3         1      2005         1        41         1         4         4
              hgridp      dthx      dthy      dthz
                 XXX       XXX       XXX       XXX
         3         2      2005        41        81         1         4         4
              hgridp      dthx      dthy      dthz
                 XXX       XXX       XXX       XXX
      MSEQ    MGFLAG    ICONSF       MTT      NGAM
         1         0         0         0         1
      ISSC EPSSSC(1) EPSSSC(2) EPSSSC(3)      ISSR EPSSSR(1) EPSSSR(2) EPSSSR(3)
         0       0.3       0.3       0.3         0       0.3       0.3       0.3
      NCYC    MGLEVG     NEMGL     NITFO
         1         1         0         0
      MIT1      MIT2      MIT3      MIT4      MIT5
         1         1         1         1         1
   1-1 BLOCKING DATA:
      NBLI
         4
   NUMBER   GRID   :   ISTA   JSTA   KSTA   IEND   JEND   KEND  ISVA1  ISVA2
        1      1          1     50      1     41     50     25      1      3
        2      1         41     50      1     81     50     25      1      3
        3      2          1      5      1     41      5     25      1      3
        4      2         41      5      1     81      5     25      1      3
   NUMBER   GRID   :   ISTA   JSTA   KSTA   IEND   JEND   KEND  ISVA1  ISVA2
        1      2          1      1      1     41      1     25      1      3
        2      2         41      1      1     81      1     25      1      3
        3      3          1      1      1     41      1     25      1      3
        4      3         41      1      1     81      1     25      1      3
  PATCH SURFACE DATA:
    NINTER
         0
PLOT3D OUTPUT:
  GRID  IPTYPE  ISTART  IEND  IINC  JSTART  JEND  JINC  KSTART  KEND  KINC
     1       0       0     0     0       0     0     0       0     0     0
     2       0       0     0     0       0     0     0       0     0     0
     3       0       0     0     0       0     0     0       0     0     0
 MOVIE
     0
 PRINT OUT:
  GRID  IPTYPE  ISTART  IEND  IINC  JSTART  JEND  JINC  KSTART  KEND  KINC
 CONTROL SURFACE:
 NCS
   0
  GRID  ISTART    IEND  JSTART    JEND  KSTART    KEND   IWALL   INORM